N = 27;
K = 1000;
M = 86;
R0 = 20;
Start = 1;
End = 27;
Edge_Start =  [2 ,2 ,3 ,3 ,3 ,4 ,4 ,4 ,5 ,5 ,5 ,6 ,6 ,7 ,7 ,7 ,8 ,8 ,8 ,8 ,8 ,9 ,9 ,9 ,9 ,9 ,10 ,10 ,10 ,10 ,10 ,11 ,11 ,11 ,12 ,12 ,12 ,13 ,13 ,13 ,13 ,13 ,14 ,14 ,14 ,14 ,14 ,15 ,15 ,15 ,15 ,15 ,16 ,16 ,16 ,17 ,17 ,17 ,18 ,18 ,18 ,18 ,18 ,19 ,19 ,19 ,19 ,19 ,20 ,20 ,20 ,20 ,20 ,21 ,21 ,21 ,1 ,1 ,1 ,1 ,1 ,22 ,23 ,24 ,25 ,26];
Edge_End =  [7 ,8 ,8 ,9 ,7 ,9 ,10 ,8 ,10 ,11 ,9 ,11 ,10 ,8 ,12 ,13 ,9 ,7 ,13 ,14 ,12 ,10 ,8 ,14 ,15 ,13 ,11 ,9 ,15 ,16 ,14 ,10 ,16 ,15 ,13 ,17 ,18 ,14 ,12 ,18 ,19 ,17 ,15 ,13 ,19 ,20 ,18 ,16 ,14 ,20 ,21 ,19 ,15 ,21 ,20 ,18 ,22 ,23 ,19 ,17 ,23 ,24 ,22 ,20 ,18 ,24 ,25 ,23 ,21 ,19 ,25 ,26 ,24 ,20 ,26 ,25 ,2 ,3 ,4 ,5 ,6 ,27 ,27 ,27 ,27 ,27];
L =  [9 ,3 ,4 ,3 ,4 ,1 ,7 ,10 ,7 ,8 ,9 ,7 ,6 ,7 ,8 ,5 ,9 ,9 ,6 ,9 ,6 ,7 ,5 ,7 ,1 ,9 ,3 ,8 ,4 ,10 ,6 ,10 ,5 ,10 ,7 ,8 ,3 ,10 ,6 ,9 ,5 ,3 ,6 ,1 ,9 ,6 ,2 ,1 ,6 ,4 ,3 ,9 ,2 ,5 ,1 ,8 ,7 ,5 ,4 ,2 ,8 ,1 ,8 ,2 ,7 ,9 ,2 ,10 ,7 ,5 ,5 ,1 ,1 ,7 ,5 ,10 ,0 ,0 ,0 ,0 ,0 ,0 ,0 ,0 ,0 ,0];
D =  [6 ,9 ,3 ,6 ,8 ,2 ,9 ,6 ,8 ,4 ,6 ,3 ,1 ,4 ,3 ,2 ,2 ,7 ,4 ,7 ,3 ,2 ,4 ,10 ,7 ,6 ,6 ,3 ,4 ,6 ,8 ,8 ,1 ,2 ,7 ,10 ,6 ,7 ,7 ,2 ,6 ,10 ,7 ,5 ,10 ,7 ,10 ,8 ,9 ,5 ,8 ,9 ,8 ,1 ,10 ,7 ,6 ,10 ,5 ,8 ,5 ,10 ,7 ,1 ,9 ,10 ,10 ,6 ,7 ,5 ,9 ,6 ,4 ,1 ,7 ,1 ,0 ,0 ,0 ,0 ,0 ,0 ,0 ,0 ,0 ,0];
R =  [5 ,4 ,3 ,2 ,3 ,5 ,2 ,4 ,4 ,3 ,1 ,4 ,5 ,2 ,2 ,1 ,2 ,1 ,4 ,2 ,4 ,3 ,5 ,2 ,2 ,3 ,5 ,5 ,5 ,5 ,1 ,1 ,1 ,5 ,5 ,1 ,1 ,4 ,2 ,2 ,1 ,1 ,5 ,2 ,4 ,2 ,3 ,3 ,2 ,4 ,1 ,4 ,4 ,5 ,1 ,2 ,3 ,1 ,5 ,2 ,2 ,3 ,2 ,1 ,2 ,5 ,2 ,4 ,4 ,2 ,3 ,2 ,4 ,2 ,5 ,5 ,500 ,500 ,500 ,500 ,500 ,500 ,500 ,500 ,500 ,500];
